(declare-const |i'| Int)
(declare-const K Int)
(declare-const j Int)
(declare-const |j'| Int)
(declare-const n Int)
(declare-const i Int)
(declare-const term_to_project_onto Real)
(declare-const term_to_project_onto0 Real)
(declare-const |j'0| Int)
(assert (and (<= (- i) 0) (<= (+ (- n) i 1) 0) (= (+ (- |j'0|) K i 1) 0)
               (or (and (= K 0) (= (+ (- |j'0|) i 1) 0))
                     (and (<= (+ (- K) 1) 0) (<= (- i) 0)
                            (<= (+ (- n) i 2) 0) (<= (+ (- |j'0|) 2) 0)
                            (<= (+ |j'0| (- n)) 0))) (<= (- K) 0)
               (<= (+ (- |j'0|) 1) 0) (<= (+ (- n) 1) 0)
               (<= (+ (- |j'0|) n) 0) (= (+ |j'| (- |j'0|)) 0)
               (= (+ |i'| (- i) -1) 0)
               (= term_to_project_onto0 (+ |i'| (- i)))
               (= term_to_project_onto (+ |j'| (- j)))))
(check-sat)
